(set-info :smt-lib-version 2.6)
(set-logic UF)
(set-info :source |
Generated by: David Deharbe, CLEARSY
Generated on: 2019-09-09
Generator: bxml;pog;pog2smt (Atelier B)
Application: B-method
Target solver: CVC4, Z3
|)
(set-info :license "https://creativecommons.org/licenses/by-nc/4.0/")
(set-info :category "industrial")
(set-info :status unknown)
; Prelude
(declare-sort U 0)
(declare-fun |*i| (U U) U)
(declare-fun |+i| (U U) U)
(declare-fun |-i| (U U) U)
(declare-fun idiv (U U) U)
(declare-fun |*r| (U U) U)
(declare-fun |+r| (U U) U)
(declare-fun |-r| (U U) U)
(declare-fun rdiv (U U) U)
(declare-fun modulo (U U) U)
(declare-fun |<i| (U U) Bool)
(declare-fun |<=i| (U U) Bool)
(declare-fun |>i| (U U) Bool)
(declare-fun |>=i| (U U) Bool)
(declare-fun |<r| (U U) Bool)
(declare-fun |<=r| (U U) Bool)
(declare-fun |>r| (U U) Bool)
(declare-fun |>=r| (U U) Bool)
(declare-fun iuminus (U) U)
(declare-fun ruminus (U) U)
(declare-fun TRUE () U)
(declare-fun FALSE () U)
(assert (not (= TRUE FALSE)))
(declare-fun empty () U)
(declare-fun bool (Bool) U)
(declare-fun BOOL () U)
(declare-fun INT () U)
(declare-fun INTEGER () U)
(declare-fun NAT () U)
(declare-fun NAT1 () U)
(declare-fun NATURAL () U)
(declare-fun NATURAL1 () U)
(declare-fun FLOAT () U)
(declare-fun MaxInt () U)
(declare-fun MinInt () U)
(declare-fun |STRING| () U)
(declare-fun REAL () U)
(declare-fun set_prod (U U) U)
(declare-fun set_diff (U U) U)
(declare-fun mapplet (U U) U)
(declare-fun |**i| (U U) U)
(declare-fun |**r| (U U) U)
(declare-fun |+->| (U U) U)
(declare-fun |+->>| (U U) U)
(declare-fun |-->| (U U) U)
(declare-fun |-->>| (U U) U)
(declare-fun |<->| (U U) U)
(declare-fun |>+>| (U U) U)
(declare-fun |>->| (U U) U)
(declare-fun |>+>>| (U U) U)
(declare-fun |>->>| (U U) U)
(declare-fun |->| (U U) U)
(declare-fun interval (U U) U)
(declare-fun composition (U U) U)
(declare-fun binary_inter (U U) U)
(declare-fun restriction_head (U U) U)
(declare-fun semicolon (U U) U)
(declare-fun |<+| (U U) U)
(declare-fun |<-| (U U) U)
(declare-fun domain_subtraction (U U) U)
(declare-fun domain_restriction (U U) U)
(declare-fun |><| (U U) U)
(declare-fun parallel_product (U U) U)
(declare-fun binary_union (U U) U)
(declare-fun restriction_tail (U U) U)
(declare-fun concatenate (U U) U)
(declare-fun range_restriction (U U) U)
(declare-fun range_subtraction (U U) U)
(declare-fun image (U U) U)
(declare-fun apply (U U) U)
(declare-fun prj1 (U U) U)
(declare-fun prj2 (U U) U)
(declare-fun iterate (U U) U)
(declare-fun |const| (U U) U)
(declare-fun rank (U U) U)
(declare-fun father (U U) U)
(declare-fun subtree (U U) U)
(declare-fun arity (U U) U)
(declare-fun |+f| (U U) U)
(declare-fun |-f| (U U) U)
(declare-fun |*f| (U U) U)
(declare-fun |fdiv| (U U) U)
(declare-fun tbin (U U U) U)
(declare-fun son (U U U) U)
(declare-fun mem (U U) Bool)
(declare-fun subset (U U) Bool)
(declare-fun strict_subset (U U) Bool)
(declare-fun |<=f| (U U) Bool)
(declare-fun |<f| (U U) Bool)
(declare-fun |>=f| (U U) Bool)
(declare-fun |>f| (U U) Bool)
(declare-fun imax (U) U)
(declare-fun imin (U) U)
(declare-fun rmax (U) U)
(declare-fun rmin (U) U)
(declare-fun card (U) U)
(declare-fun dom (U) U)
(declare-fun ran (U) U)
(declare-fun POW (U) U)
(declare-fun POW1 (U) U)
(declare-fun FIN (U) U)
(declare-fun FIN1 (U) U)
(declare-fun union (U) U)
(declare-fun inter (U) U)
(declare-fun seq (U) U)
(declare-fun seq1 (U) U)
(declare-fun iseq (U) U)
(declare-fun iseq1 (U) U)
(declare-fun inverse (U) U)
(declare-fun size (U) U)
(declare-fun perm (U) U)
(declare-fun first (U) U)
(declare-fun last (U) U)
(declare-fun id (U) U)
(declare-fun closure (U) U)
(declare-fun closure1 (U) U)
(declare-fun tail (U) U)
(declare-fun front (U) U)
(declare-fun reverse (U) U)
(declare-fun rev (U) U)
(declare-fun conc (U) U)
(declare-fun succ (U) U)
(declare-fun pred (U) U)
(declare-fun rel (U) U)
(declare-fun fnc (U) U)
(declare-fun real (U) U)
(declare-fun floor (U) U)
(declare-fun ceiling (U) U)
(declare-fun tree (U) U)
(declare-fun btree (U) U)
(declare-fun top (U) U)
(declare-fun sons (U) U)
(declare-fun prefix (U) U)
(declare-fun postfix (U) U)
(declare-fun sizet (U) U)
(declare-fun mirror (U) U)
(declare-fun left (U) U)
(declare-fun right (U) U)
(declare-fun infix (U) U)
(declare-fun ubin (U) U)
(declare-fun SEQ (U) U)
(declare-fun SET (U) U)
; Opaque formulas
(declare-fun e0 () U)
(declare-fun e119 () U)
(declare-fun g_s0_1 () U)
(declare-fun g_s1_2 () U)
(declare-fun g_s10_11 () U)
(declare-fun g_s100_101 () U)
(declare-fun g_s101_102 () U)
(declare-fun g_s102_103 () U)
(declare-fun g_s103_104 () U)
(declare-fun g_s104_105 () U)
(declare-fun g_s105_106 () U)
(declare-fun g_s106_107 () U)
(declare-fun g_s107_108 () U)
(declare-fun g_s108_109 () U)
(declare-fun g_s109_110 () U)
(declare-fun g_s11_12 () U)
(declare-fun g_s110_111 () U)
(declare-fun g_s111_112 () U)
(declare-fun g_s112_113 () U)
(declare-fun g_s113_114 () U)
(declare-fun g_s114_115 () U)
(declare-fun g_s117_118 () U)
(declare-fun g_s118_120 () U)
(declare-fun g_s119_121 () U)
(declare-fun g_s12_13 () U)
(declare-fun g_s120_122 () U)
(declare-fun g_s121_123 () U)
(declare-fun g_s122_124 () U)
(declare-fun g_s123_125 () U)
(declare-fun g_s124_126 () U)
(declare-fun g_s125_127 () U)
(declare-fun g_s126_128 () U)
(declare-fun g_s127_129 () U)
(declare-fun g_s128_130 () U)
(declare-fun g_s129_131 () U)
(declare-fun g_s13_14 () U)
(declare-fun g_s130_132 () U)
(declare-fun g_s131_133 () U)
(declare-fun g_s132_134 () U)
(declare-fun g_s133_135 () U)
(declare-fun g_s134_136 () U)
(declare-fun g_s135_137 () U)
(declare-fun g_s136_138 () U)
(declare-fun g_s137_139 () U)
(declare-fun g_s138_140 () U)
(declare-fun g_s139_141 () U)
(declare-fun g_s14_15 () U)
(declare-fun g_s140_142 () U)
(declare-fun g_s141_143 () U)
(declare-fun g_s142_144 () U)
(declare-fun g_s143_145 () U)
(declare-fun g_s144_146 () U)
(declare-fun g_s145_147 () U)
(declare-fun g_s146_148 () U)
(declare-fun g_s147_149 () U)
(declare-fun g_s148_150 () U)
(declare-fun g_s149_151 () U)
(declare-fun g_s15_16 () U)
(declare-fun g_s150_152 () U)
(declare-fun g_s151_153 () U)
(declare-fun g_s152_154 () U)
(declare-fun g_s153_155 () U)
(declare-fun g_s154_156 () U)
(declare-fun g_s155_157 () U)
(declare-fun g_s156_158 () U)
(declare-fun g_s157_159 () U)
(declare-fun g_s158_160 () U)
(declare-fun g_s159_161 () U)
(declare-fun g_s16_17 () U)
(declare-fun g_s160_162 () U)
(declare-fun g_s161_163 () U)
(declare-fun g_s162_164 () U)
(declare-fun g_s163_165 () U)
(declare-fun g_s164_166 () U)
(declare-fun g_s165_167 () U)
(declare-fun g_s166_168 () U)
(declare-fun g_s167_169 () U)
(declare-fun g_s168_170 () U)
(declare-fun g_s169_171 () U)
(declare-fun g_s17_18 () U)
(declare-fun g_s170_172 () U)
(declare-fun g_s171_173 () U)
(declare-fun g_s172_174 () U)
(declare-fun g_s173_175 () U)
(declare-fun g_s174_176 () U)
(declare-fun g_s175_177 () U)
(declare-fun g_s176_178 () U)
(declare-fun g_s177_179 () U)
(declare-fun g_s178_180 () U)
(declare-fun g_s179_181 () U)
(declare-fun g_s18_19 () U)
(declare-fun g_s180_182 () U)
(declare-fun g_s181_183 () U)
(declare-fun g_s182_184 () U)
(declare-fun g_s183_185 () U)
(declare-fun g_s184_186 () U)
(declare-fun g_s185_187 () U)
(declare-fun g_s186_188 () U)
(declare-fun g_s187_189 () U)
(declare-fun g_s188_190 () U)
(declare-fun g_s189_191 () U)
(declare-fun g_s19_20 () U)
(declare-fun g_s190_192 () U)
(declare-fun g_s191_193 () U)
(declare-fun g_s192_194 () U)
(declare-fun g_s193_195 () U)
(declare-fun g_s194_196 () U)
(declare-fun g_s195_197 () U)
(declare-fun g_s196_198 () U)
(declare-fun g_s197_199 () U)
(declare-fun g_s198_200 () U)
(declare-fun g_s199_201 () U)
(declare-fun g_s2_3 () U)
(declare-fun g_s20_21 () U)
(declare-fun g_s203_202 () U)
(declare-fun g_s204$1_204 () U)
(declare-fun g_s204$1_206 () U)
(declare-fun g_s204$1_203 () U)
(declare-fun g_s21_22 () U)
(declare-fun g_s211_205 () U)
(declare-fun g_s22_23 () U)
(declare-fun g_s23_24 () U)
(declare-fun g_s24_25 () U)
(declare-fun g_s25_26 () U)
(declare-fun g_s26_27 () U)
(declare-fun g_s27_28 () U)
(declare-fun g_s28_29 () U)
(declare-fun g_s29_30 () U)
(declare-fun g_s3_4 () U)
(declare-fun g_s30_31 () U)
(declare-fun g_s31_32 () U)
(declare-fun g_s32_33 () U)
(declare-fun g_s33_34 () U)
(declare-fun g_s34_35 () U)
(declare-fun g_s35_36 () U)
(declare-fun g_s36_37 () U)
(declare-fun g_s37_38 () U)
(declare-fun g_s38_39 () U)
(declare-fun g_s39_40 () U)
(declare-fun g_s4_5 () U)
(declare-fun g_s40_41 () U)
(declare-fun g_s41_42 () U)
(declare-fun g_s42_43 () U)
(declare-fun g_s43_44 () U)
(declare-fun g_s44_45 () U)
(declare-fun g_s45_46 () U)
(declare-fun g_s46_47 () U)
(declare-fun g_s47_48 () U)
(declare-fun g_s48_49 () U)
(declare-fun g_s49_50 () U)
(declare-fun g_s5_6 () U)
(declare-fun g_s50_51 () U)
(declare-fun g_s51_52 () U)
(declare-fun g_s52_53 () U)
(declare-fun g_s53_54 () U)
(declare-fun g_s54_55 () U)
(declare-fun g_s55_56 () U)
(declare-fun g_s56_57 () U)
(declare-fun g_s57_58 () U)
(declare-fun g_s58_59 () U)
(declare-fun g_s59_60 () U)
(declare-fun g_s6_7 () U)
(declare-fun g_s60_61 () U)
(declare-fun g_s61_62 () U)
(declare-fun g_s62_63 () U)
(declare-fun g_s63_64 () U)
(declare-fun g_s64_65 () U)
(declare-fun g_s65_66 () U)
(declare-fun g_s66_67 () U)
(declare-fun g_s67_68 () U)
(declare-fun g_s68_69 () U)
(declare-fun g_s69_70 () U)
(declare-fun g_s7_8 () U)
(declare-fun g_s70_71 () U)
(declare-fun g_s71_72 () U)
(declare-fun g_s72_73 () U)
(declare-fun g_s73_74 () U)
(declare-fun g_s74_75 () U)
(declare-fun g_s75_76 () U)
(declare-fun g_s76_77 () U)
(declare-fun g_s77_78 () U)
(declare-fun g_s78_79 () U)
(declare-fun g_s79_80 () U)
(declare-fun g_s8_9 () U)
(declare-fun g_s80_81 () U)
(declare-fun g_s81_82 () U)
(declare-fun g_s82_83 () U)
(declare-fun g_s83_84 () U)
(declare-fun g_s84_85 () U)
(declare-fun g_s85_86 () U)
(declare-fun g_s86_87 () U)
(declare-fun g_s87_88 () U)
(declare-fun g_s88_89 () U)
(declare-fun g_s89_90 () U)
(declare-fun g_s9_10 () U)
(declare-fun g_s90_91 () U)
(declare-fun g_s91_92 () U)
(declare-fun g_s92_93 () U)
(declare-fun g_s93_94 () U)
(declare-fun g_s94_95 () U)
(declare-fun g_s95_96 () U)
(declare-fun g_s96_97 () U)
(declare-fun g_s97_98 () U)
(declare-fun g_s98_99 () U)
(declare-fun g_s99_100 () U)
(declare-fun e117 () U)
(declare-fun e116 () U)
; Defines
(define-fun |def_B definitions| () Bool (and (= NAT (interval e0 MaxInt)) (= INT (interval MinInt MaxInt))))
(define-fun |def_ctx| () Bool (and (not (= g_s0_1 empty)) (not (= g_s1_2 empty)) (not (= g_s2_3 empty)) (not (= g_s3_4 empty)) (not (= g_s4_5 empty)) (not (= g_s5_6 empty)) (not (= g_s6_7 empty)) (not (= g_s7_8 empty)) (= g_s8_9 (SET (mapplet g_s10_11 g_s9_10))) (= g_s11_12 (SET (mapplet g_s16_17 (mapplet g_s15_16 (mapplet g_s14_15 (mapplet g_s13_14 g_s12_13)))))) (= g_s17_18 (SET (mapplet g_s21_22 (mapplet g_s20_21 (mapplet g_s19_20 g_s18_19))))) (= g_s22_23 (SET (mapplet g_s25_26 (mapplet g_s24_25 g_s23_24)))) (= g_s26_27 (SET (mapplet g_s29_30 (mapplet g_s28_29 g_s27_28)))) (= g_s30_31 (SET (mapplet g_s33_34 (mapplet g_s32_33 g_s31_32)))) (= g_s34_35 (SET (mapplet g_s38_39 (mapplet g_s37_38 (mapplet g_s36_37 g_s35_36))))) (= g_s39_40 (SET (mapplet g_s47_48 (mapplet g_s46_47 (mapplet g_s45_46 (mapplet g_s44_45 (mapplet g_s43_44 (mapplet g_s42_43 (mapplet g_s41_42 g_s40_41))))))))) (= g_s48_49 (SET (mapplet g_s52_53 (mapplet g_s51_52 (mapplet g_s50_51 g_s49_50))))) (= g_s53_54 (SET (mapplet g_s61_62 (mapplet g_s60_61 (mapplet g_s59_60 (mapplet g_s58_59 (mapplet g_s57_58 (mapplet g_s56_57 (mapplet g_s55_56 g_s54_55))))))))) (= g_s62_63 (SET (mapplet g_s65_66 (mapplet g_s64_65 g_s63_64)))) (= g_s66_67 (SET (mapplet g_s69_70 (mapplet g_s68_69 g_s67_68)))) (= g_s70_71 (SET (mapplet g_s73_74 (mapplet g_s72_73 g_s71_72)))) (= g_s74_75 (SET (mapplet g_s76_77 g_s75_76))) (= g_s77_78 (SET (mapplet g_s79_80 g_s78_79))) (= g_s80_81 (SET (mapplet g_s83_84 (mapplet g_s82_83 g_s81_82)))) (= g_s84_85 (SET (mapplet g_s86_87 g_s85_86))) (= g_s87_88 (SET (mapplet g_s90_91 (mapplet g_s89_90 g_s88_89)))) (not (= g_s91_92 empty)) (not (= g_s92_93 empty)) (not (= g_s93_94 empty)) (not (= g_s94_95 empty)) (not (= g_s95_96 empty)) (not (= g_s96_97 empty)) (not (= g_s97_98 empty)) (not (= g_s98_99 empty)) (not (= g_s99_100 empty)) (not (= g_s100_101 empty)) (not (= g_s101_102 empty)) (not (= g_s102_103 empty)) (not (= g_s103_104 empty)) (not (= g_s104_105 empty)) (not (= g_s105_106 empty)) (not (= g_s106_107 empty)) (not (= g_s107_108 empty)) (not (= g_s108_109 empty)) (not (= g_s109_110 empty)) (= g_s110_111 (SET (mapplet g_s113_114 (mapplet g_s112_113 g_s111_112)))) (mem g_s114_115 (|-->| (set_prod INTEGER NATURAL) INTEGER)) (= g_s114_115 (binary_union e117 e116)) (mem g_s117_118 (|-->| BOOL NAT)) (= g_s117_118 (SET (mapplet (mapplet FALSE e0) (mapplet TRUE e119)))) (= g_s118_120 INT) (= g_s119_121 NAT) (= g_s120_122 NAT1) (subset g_s120_122 g_s119_121) (subset g_s119_121 g_s118_120) (mem g_s121_123 g_s118_120) (mem g_s121_123 g_s119_121) (not (mem g_s121_123 g_s120_122)) (mem g_s122_124 g_s118_120) (not (mem g_s122_124 g_s119_121)) (= g_s123_125 INT) (subset g_s124_126 g_s91_92) (mem g_s125_127 g_s91_92) (mem g_s125_127 g_s124_126) (mem g_s126_128 g_s91_92) (not (mem g_s126_128 g_s124_126)) (mem g_s127_129 (|+->| NAT g_s91_92)) (mem g_s127_129 (perm g_s124_126)) (= (card g_s124_126) g_s128_130) (subset g_s129_131 g_s92_93) (mem g_s130_132 g_s92_93) (mem g_s130_132 g_s129_131) (mem g_s131_133 g_s92_93) (not (mem g_s131_133 g_s129_131)) (mem g_s132_134 (|+->| NAT g_s92_93)) (mem g_s132_134 (perm g_s129_131)) (= (card g_s129_131) g_s133_135) (subset g_s134_136 g_s93_94) (mem g_s135_137 g_s93_94) (not (mem g_s135_137 g_s134_136)) (mem g_s136_138 (|+->| NAT g_s93_94)) (mem g_s136_138 (perm g_s134_136)) (subset g_s137_139 g_s94_95) (mem g_s138_140 g_s94_95) (not (mem g_s138_140 g_s137_139)) (mem g_s139_141 (|+->| NAT g_s94_95)) (mem g_s139_141 (perm g_s137_139)) (subset g_s140_142 g_s95_96) (mem g_s141_143 g_s95_96) (not (mem g_s141_143 g_s140_142)) (mem g_s142_144 (|+->| NAT g_s95_96)) (mem g_s142_144 (perm g_s140_142)) (subset g_s143_145 g_s96_97) (mem g_s144_146 g_s96_97) (not (mem g_s144_146 g_s143_145)) (mem g_s145_147 (|+->| NAT g_s96_97)) (mem g_s145_147 (perm g_s143_145)) (subset g_s146_148 g_s97_98) (mem g_s147_149 g_s97_98) (not (mem g_s147_149 g_s146_148)) (mem g_s148_150 (|+->| NAT g_s97_98)) (mem g_s148_150 (perm g_s146_148)) (subset g_s149_151 g_s98_99) (mem g_s150_152 g_s98_99) (not (mem g_s150_152 g_s149_151)) (mem g_s151_153 (|+->| NAT g_s98_99)) (mem g_s151_153 (perm g_s149_151)) (subset g_s152_154 g_s99_100) (mem g_s153_155 g_s99_100) (not (mem g_s153_155 g_s152_154)) (mem g_s154_156 (|+->| NAT g_s99_100)) (mem g_s154_156 (perm g_s152_154)) (subset g_s155_157 g_s100_101) (mem g_s156_158 g_s100_101) (not (mem g_s156_158 g_s155_157)) (mem g_s157_159 (|+->| NAT g_s100_101)) (mem g_s157_159 (perm g_s155_157)) (subset g_s158_160 g_s101_102) (mem g_s159_161 g_s101_102) (not (mem g_s159_161 g_s158_160)) (mem g_s160_162 (|+->| NAT g_s101_102)) (mem g_s160_162 (perm g_s158_160)) (subset g_s161_163 g_s102_103) (mem g_s162_164 g_s102_103) (not (mem g_s162_164 g_s161_163)) (mem g_s163_165 (|+->| NAT g_s102_103)) (mem g_s163_165 (perm g_s161_163)) (mem g_s164_166 g_s103_104) (mem g_s165_167 (|-->| g_s103_104 g_s96_97)) (= (apply g_s165_167 g_s164_166) g_s144_146) (subset g_s166_168 g_s104_105) (mem g_s167_169 g_s104_105) (not (mem g_s167_169 g_s166_168)) (subset g_s168_170 g_s105_106) (mem g_s169_171 g_s105_106) (not (mem g_s169_171 g_s168_170)) (mem g_s170_172 (|+->| NAT g_s105_106)) (mem g_s170_172 (perm g_s168_170)) (subset g_s171_173 g_s106_107) (mem g_s172_174 g_s106_107) (not (mem g_s172_174 g_s171_173)) (mem g_s173_175 (|+->| NAT g_s106_107)) (mem g_s173_175 (perm g_s171_173)) (subset g_s174_176 g_s107_108) (mem g_s175_177 g_s107_108) (not (mem g_s175_177 g_s174_176)) (mem g_s176_178 (|+->| NAT g_s107_108)) (mem g_s176_178 (perm g_s174_176)) (subset g_s177_179 g_s108_109) (mem g_s178_180 g_s108_109) (not (mem g_s178_180 g_s177_179)) (mem g_s179_181 (|+->| NAT g_s108_109)) (mem g_s179_181 (perm g_s177_179)) (subset g_s180_182 g_s109_110) (mem g_s181_183 g_s109_110) (not (mem g_s181_183 g_s180_182)) (mem g_s182_184 (|+->| NAT g_s109_110)) (mem g_s182_184 (perm g_s180_182)) (mem g_s183_185 (|>->| g_s168_170 g_s129_131)) (mem g_s184_186 (|>->| g_s171_173 g_s129_131)) (mem g_s185_187 g_s92_93) (=> (not (= g_s186_188 e0)) (mem g_s185_187 g_s129_131)) (mem g_s187_189 (|>->| g_s177_179 g_s129_131)) (= (binary_inter (ran g_s183_185) (ran g_s184_186)) empty) (= (binary_inter (ran g_s183_185) (ran g_s187_189)) empty) (= (binary_inter (ran g_s187_189) (ran g_s184_186)) empty) (=> (not (= g_s186_188 e0)) (not (mem g_s185_187 (ran g_s183_185)))) (=> (not (= g_s186_188 e0)) (not (mem g_s185_187 (ran g_s184_186)))) (=> (not (= g_s186_188 e0)) (not (mem g_s185_187 (ran g_s187_189)))) (subset g_s188_190 g_s62_63) (not (mem g_s63_64 g_s188_190)) (= g_s188_190 (SET (mapplet g_s65_66 g_s64_65))) (mem g_s189_191 (|>->>| g_s188_190 g_s188_190)) (= (binary_inter g_s189_191 (id g_s188_190)) empty) (mem g_s190_192 (|>->>| g_s22_23 g_s62_63)) (not (mem (apply g_s190_192 g_s23_24) g_s188_190)) (mem g_s191_193 (|>->>| g_s26_27 g_s62_63)) (mem g_s192_194 (|>->>| g_s62_63 g_s26_27)) (= g_s191_193 (inverse g_s192_194)) (not (mem (apply g_s191_193 g_s27_28) g_s188_190))))
(define-fun |def_seext| () Bool true)
(define-fun |def_lprp| () Bool true)
(define-fun |def_inprp| () Bool true)
(define-fun |def_inext| () Bool true)
(define-fun |def_inv| () Bool (and (mem g_s193_195 (|+->| g_s168_170 g_s140_142)) (mem g_s194_196 (|+->| g_s168_170 g_s140_142)) (mem g_s195_197 (|-->| g_s168_170 NAT)) (mem g_s196_198 (|-->| g_s168_170 (|+->| g_s137_139 g_s188_190))) (mem g_s197_199 (|+->| g_s168_170 g_s119_121)) (mem g_s198_200 (|+->| g_s168_170 g_s119_121)) (subset g_s199_201 g_s168_170)))
(define-fun |def_ass| () Bool true)
(define-fun |def_cst| () Bool true)
(define-fun |def_sets| () Bool true)
; PO group 0 
(push 1)
(assert |def_B definitions|)
(assert |def_ctx|)
(assert |def_cst|)
(assert |def_lprp|)
(assert |def_inprp|)
(assert |def_inext|)
(assert |def_seext|)
; PO 1 in group 0
(push 1)
(assert (not (mem empty (|+->| g_s168_170 g_s140_142))))
(check-sat)
(pop 1)
; PO 2 in group 0
(push 1)
(assert (not (mem (set_prod g_s168_170 (SET empty)) (|-->| g_s168_170 (|+->| g_s137_139 g_s188_190)))))
(set-info :status unknown)
(check-sat)
(pop 1)
; PO 3 in group 0
(push 1)
(assert (not (mem (set_prod g_s168_170 (SET e0)) (|+->| g_s168_170 g_s119_121))))
(set-info :status unknown)
(check-sat)
(pop 1)
; PO 4 in group 0
(push 1)
(assert (not (mem (set_prod g_s168_170 (SET e0)) (|-->| g_s168_170 NAT))))
(set-info :status unknown)
(check-sat)
(pop 1)
; PO 5 in group 0
(push 1)
(assert (not (subset empty g_s168_170)))
(set-info :status unknown)
(check-sat)
(pop 1)
(pop 1)
; PO group 1 
(push 1)
(assert |def_B definitions|)
(assert |def_ctx|)
(assert |def_cst|)
(assert |def_lprp|)
(assert |def_inprp|)
(assert |def_inext|)
(assert |def_seext|)
(assert |def_inv|)
(assert |def_ass|)
(assert (mem g_s203_202 g_s105_106))
(assert (mem g_s203_202 g_s168_170))
(define-fun lh_1 () Bool (mem g_s203_202 (dom g_s193_195)))
(define-fun lh_2 () Bool (mem g_s204$1_203 g_s95_96))
; PO 1 in group 1
(assert (not (=> (and lh_1 lh_2) (mem g_s193_195 (|+->| (dom g_s193_195) (ran g_s193_195))))))
(set-info :status unknown)
(check-sat)
(pop 1)
; PO group 2 
(push 1)
(assert |def_B definitions|)
(assert |def_ctx|)
(assert |def_cst|)
(assert |def_lprp|)
(assert |def_inprp|)
(assert |def_inext|)
(assert |def_seext|)
(assert |def_inv|)
(assert |def_ass|)
(assert (mem g_s203_202 g_s105_106))
(assert (mem g_s203_202 g_s168_170))
(assert (mem g_s203_202 (dom g_s193_195)))
(define-fun lh_1 () Bool (mem g_s204$1_203 g_s95_96))
; PO 1 in group 2
(assert (not (=> lh_1 (mem g_s193_195 (|+->| (dom g_s193_195) (ran g_s193_195))))))
(set-info :status unknown)
(check-sat)
(pop 1)
; PO group 3 
(push 1)
(assert |def_B definitions|)
(assert |def_ctx|)
(assert |def_cst|)
(assert |def_lprp|)
(assert |def_inprp|)
(assert |def_inext|)
(assert |def_seext|)
(assert |def_inv|)
(assert |def_ass|)
(assert (mem g_s203_202 g_s105_106))
(assert (mem g_s203_202 g_s168_170))
(define-fun lh_1 () Bool (mem g_s203_202 (dom g_s194_196)))
(define-fun lh_2 () Bool (mem g_s204$1_203 g_s95_96))
; PO 1 in group 3
(assert (not (=> (and lh_1 lh_2) (mem g_s194_196 (|+->| (dom g_s194_196) (ran g_s194_196))))))
(set-info :status unknown)
(check-sat)
(pop 1)
; PO group 4 
(push 1)
(assert |def_B definitions|)
(assert |def_ctx|)
(assert |def_cst|)
(assert |def_lprp|)
(assert |def_inprp|)
(assert |def_inext|)
(assert |def_seext|)
(assert |def_inv|)
(assert |def_ass|)
(assert (mem g_s203_202 g_s105_106))
(assert (mem g_s203_202 g_s168_170))
(assert (mem g_s203_202 (dom g_s194_196)))
(define-fun lh_1 () Bool (mem g_s204$1_203 g_s95_96))
; PO 1 in group 4
(assert (not (=> lh_1 (mem g_s194_196 (|+->| (dom g_s194_196) (ran g_s194_196))))))
(set-info :status unknown)
(check-sat)
(pop 1)
; PO group 5 
(push 1)
(assert |def_B definitions|)
(assert |def_ctx|)
(assert |def_cst|)
(assert |def_lprp|)
(assert |def_inprp|)
(assert |def_inext|)
(assert |def_seext|)
(assert |def_inv|)
(assert |def_ass|)
(assert (mem g_s203_202 g_s105_106))
(assert (mem g_s203_202 g_s168_170))
(define-fun lh_1 () Bool (mem g_s204$1_204 NAT))
; PO 1 in group 5
(push 1)
(assert (not (=> lh_1 (mem g_s195_197 (|+->| (dom g_s195_197) (ran g_s195_197))))))
(set-info :status unknown)
(check-sat)
(pop 1)
; PO 2 in group 5
(push 1)
(assert (not (=> lh_1 (mem g_s203_202 (dom g_s195_197)))))
(set-info :status unknown)
(check-sat)
(pop 1)
(pop 1)
; PO group 6 
(push 1)
(assert |def_B definitions|)
(assert |def_ctx|)
(assert |def_cst|)
(assert |def_lprp|)
(assert |def_inprp|)
(assert |def_inext|)
(assert |def_seext|)
(assert |def_inv|)
(assert |def_ass|)
(assert (mem g_s203_202 g_s105_106))
(assert (mem g_s203_202 g_s168_170))
(assert (mem g_s211_205 g_s94_95))
(assert (mem g_s211_205 g_s137_139))
(define-fun lh_1 () Bool (mem g_s211_205 (dom (apply g_s196_198 g_s203_202))))
(define-fun lh_2 () Bool (mem g_s204$1_206 g_s62_63))
; PO 1 in group 6
(push 1)
(assert (not (mem g_s196_198 (|+->| (dom g_s196_198) (ran g_s196_198)))))
(set-info :status unknown)
(check-sat)
(pop 1)
; PO 2 in group 6
(push 1)
(assert (not (mem g_s203_202 (dom g_s196_198))))
(set-info :status unknown)
(check-sat)
(pop 1)
; PO 3 in group 6
(push 1)
(assert (not (=> (and lh_1 lh_2) (mem g_s196_198 (|+->| (dom g_s196_198) (ran g_s196_198))))))
(set-info :status unknown)
(check-sat)
(pop 1)
; PO 4 in group 6
(push 1)
(assert (not (=> (and lh_1 lh_2) (mem g_s203_202 (dom g_s196_198)))))
(set-info :status unknown)
(check-sat)
(pop 1)
; PO 5 in group 6
(push 1)
(assert (not (=> (and lh_1 lh_2) (mem (apply g_s196_198 g_s203_202) (|+->| (dom (apply g_s196_198 g_s203_202)) (ran (apply g_s196_198 g_s203_202)))))))
(set-info :status unknown)
(check-sat)
(pop 1)
(pop 1)
; PO group 7 
(push 1)
(assert |def_B definitions|)
(assert |def_ctx|)
(assert |def_cst|)
(assert |def_lprp|)
(assert |def_inprp|)
(assert |def_inext|)
(assert |def_seext|)
(assert |def_inv|)
(assert |def_ass|)
(assert (mem g_s203_202 g_s105_106))
(assert (mem g_s203_202 g_s168_170))
(assert (mem g_s211_205 g_s94_95))
(assert (mem g_s211_205 g_s137_139))
; PO 1 in group 7
(push 1)
(assert (not (mem g_s196_198 (|+->| (dom g_s196_198) (ran g_s196_198)))))
(set-info :status unknown)
(check-sat)
(pop 1)
; PO 2 in group 7
(push 1)
(assert (not (mem g_s203_202 (dom g_s196_198))))
(set-info :status unknown)
(check-sat)
(pop 1)
(pop 1)
; PO group 8 
(push 1)
(assert |def_B definitions|)
(assert |def_ctx|)
(assert |def_cst|)
(assert |def_lprp|)
(assert |def_inprp|)
(assert |def_inext|)
(assert |def_seext|)
(assert |def_inv|)
(assert |def_ass|)
(define-fun lh_1 () Bool (mem g_s203_202 g_s105_106))
(define-fun lh_2 () Bool (mem g_s203_202 g_s168_170))
(define-fun lh_3 () Bool (mem g_s211_205 g_s94_95))
(define-fun lh_4 () Bool (mem g_s211_205 g_s137_139))
; PO 1 in group 8
(push 1)
(assert (not (=> (and lh_1 lh_2 lh_3 lh_4) (mem g_s196_198 (|+->| (dom g_s196_198) (ran g_s196_198))))))
(set-info :status unknown)
(check-sat)
(pop 1)
; PO 2 in group 8
(push 1)
(assert (not (=> (and lh_1 lh_2 lh_3 lh_4) (mem g_s203_202 (dom g_s196_198)))))
(set-info :status unknown)
(check-sat)
(pop 1)
(pop 1)
; PO group 9 
(push 1)
(assert |def_B definitions|)
(assert |def_ctx|)
(assert |def_cst|)
(assert |def_lprp|)
(assert |def_inprp|)
(assert |def_inext|)
(assert |def_seext|)
(assert |def_inv|)
(assert |def_ass|)
(assert (mem g_s203_202 g_s105_106))
(assert (mem g_s203_202 g_s168_170))
(assert (mem g_s211_205 g_s94_95))
(assert (mem g_s211_205 g_s137_139))
(assert (mem g_s211_205 (dom (apply g_s196_198 g_s203_202))))
(define-fun lh_1 () Bool (mem g_s204$1_206 g_s62_63))
; PO 1 in group 9
(push 1)
(assert (not (=> lh_1 (mem g_s196_198 (|+->| (dom g_s196_198) (ran g_s196_198))))))
(set-info :status unknown)
(check-sat)
(pop 1)
; PO 2 in group 9
(push 1)
(assert (not (=> lh_1 (mem g_s203_202 (dom g_s196_198)))))
(set-info :status unknown)
(check-sat)
(pop 1)
; PO 3 in group 9
(push 1)
(assert (not (=> lh_1 (mem (apply g_s196_198 g_s203_202) (|+->| (dom (apply g_s196_198 g_s203_202)) (ran (apply g_s196_198 g_s203_202)))))))
(set-info :status unknown)
(check-sat)
(pop 1)
(pop 1)
; PO group 10 
(push 1)
(assert |def_B definitions|)
(assert |def_ctx|)
(assert |def_cst|)
(assert |def_lprp|)
(assert |def_inprp|)
(assert |def_inext|)
(assert |def_seext|)
(assert |def_inv|)
(assert |def_ass|)
(assert (mem g_s203_202 g_s105_106))
(assert (mem g_s203_202 g_s168_170))
(define-fun lh_1 () Bool (mem g_s203_202 (dom g_s197_199)))
(define-fun lh_2 () Bool (mem g_s204$1_204 g_s118_120))
; PO 1 in group 10
(assert (not (=> (and lh_1 lh_2) (mem g_s197_199 (|+->| (dom g_s197_199) (ran g_s197_199))))))
(set-info :status unknown)
(check-sat)
(pop 1)
; PO group 11 
(push 1)
(assert |def_B definitions|)
(assert |def_ctx|)
(assert |def_cst|)
(assert |def_lprp|)
(assert |def_inprp|)
(assert |def_inext|)
(assert |def_seext|)
(assert |def_inv|)
(assert |def_ass|)
(assert (mem g_s203_202 g_s105_106))
(assert (mem g_s203_202 g_s168_170))
(assert (mem g_s203_202 (dom g_s197_199)))
(define-fun lh_1 () Bool (mem g_s204$1_204 g_s118_120))
; PO 1 in group 11
(assert (not (=> lh_1 (mem g_s197_199 (|+->| (dom g_s197_199) (ran g_s197_199))))))
(set-info :status unknown)
(check-sat)
(pop 1)
; PO group 12 
(push 1)
(assert |def_B definitions|)
(assert |def_ctx|)
(assert |def_cst|)
(assert |def_lprp|)
(assert |def_inprp|)
(assert |def_inext|)
(assert |def_seext|)
(assert |def_inv|)
(assert |def_ass|)
(assert (mem g_s203_202 g_s105_106))
(assert (mem g_s203_202 g_s168_170))
(define-fun lh_1 () Bool (mem g_s203_202 (dom g_s198_200)))
(define-fun lh_2 () Bool (mem g_s204$1_204 g_s118_120))
; PO 1 in group 12
(assert (not (=> (and lh_1 lh_2) (mem g_s198_200 (|+->| (dom g_s198_200) (ran g_s198_200))))))
(set-info :status unknown)
(check-sat)
(pop 1)
; PO group 13 
(push 1)
(assert |def_B definitions|)
(assert |def_ctx|)
(assert |def_cst|)
(assert |def_lprp|)
(assert |def_inprp|)
(assert |def_inext|)
(assert |def_seext|)
(assert |def_inv|)
(assert |def_ass|)
(assert (mem g_s203_202 g_s105_106))
(assert (mem g_s203_202 g_s168_170))
(assert (mem g_s203_202 (dom g_s198_200)))
(define-fun lh_1 () Bool (mem g_s204$1_204 g_s118_120))
; PO 1 in group 13
(assert (not (=> lh_1 (mem g_s198_200 (|+->| (dom g_s198_200) (ran g_s198_200))))))
(set-info :status unknown)
(check-sat)
(pop 1)
(exit)